NAME: tsp20_27
COMMENT: 20-tsp problem (Padberg/Rinaldi)
TYPE: TSP
DIMENSION: 20
EDGE_WEIGHT_TYPE : EUC_2D
NODE_COORD_SECTION
1 21 25
2 11 31
3 11 39
4 37 34
5 36 6
6 2 38
7 11 33
8 35 16
9 1 8
10 24 35
11 39 8
12 5 28
13 22 34
14 10 15
15 0 33
16 25 27
17 24 11
18 20 13
19 30 38
20 30 19
